20
20343 63384
84424 95944
40619 3323
82529 56768
17446 33225
49108 80954
61866 4805
52317 42933
73017 52565
38772 8740
10896 16130
7118 22326
22635 35691
58899 7458
28127 63390
43310 90665
1154 86460
64666 47599
44204 79639
47010 76927
